branch-and-cut/resultados/I080/i080-015.sol
1495
9
48 65
32 65
2 48
48 16
5 16
32 6
1 32
32 3
16 4
